/* Objective function */
 
Max: 4000 S1 + 6500 S2 + 5900 S3 + 5400 H1 + 5150 H2 + 10000 H3 + 8400 C1 + 6250 C2;

/* Constraints */

40000 S1 + 50000 S2 + 80000 S3 + 60000 H1 + 45000 H2 + 60000 H3 + 30000 C1 + 25000 C2 <= 2500000;
40000 S1 + 50000 S2 + 80000S3 <= 1000000;
60000 H1 + 45000 H2 + 60000 H3 <= 1000000;
30000 C1 + 25000 C2 <= 1000000;
40000 S1 >= 100000;
50000 S2 >= 100000;
80000 S3 >= 100000;
60000 H1 >= 100000;
45000 H2 >= 100000;
60000 H3 >= 100000;
30000 C1 >= 100000;
25000 C2 >= 100000;

int S1, S2, S3, H1, H2, H3, C1, C2;
